;; Automatically generated 20D closed-loop LQR CHC for eady
;; Note: Singleton initialization applied (all states start exactly at 0.0)
(set-logic HORN)

(declare-fun Inv (Real Real Real Real Real Real Real Real Real Real Real Real Real Real Real Real Real Real Real Real) Bool)

;; 1. Initialization
(assert
  (forall ((x0 Real) (x1 Real) (x2 Real) (x3 Real) (x4 Real) (x5 Real) (x6 Real) (x7 Real) (x8 Real) (x9 Real) (x10 Real) (x11 Real) (x12 Real) (x13 Real) (x14 Real) (x15 Real) (x16 Real) (x17 Real) (x18 Real) (x19 Real))
    (=>
      (and
        (= x0 0.0)
        (= x1 0.0)
        (= x2 0.0)
        (= x3 0.0)
        (= x4 0.0)
        (= x5 0.0)
        (= x6 0.0)
        (= x7 0.0)
        (= x8 0.0)
        (= x9 0.0)
        (= x10 0.0)
        (= x11 0.0)
        (= x12 0.0)
        (= x13 0.0)
        (= x14 0.0)
        (= x15 0.0)
        (= x16 0.0)
        (= x17 0.0)
        (= x18 0.0)
        (= x19 0.0)
      )
      (Inv x0 x1 x2 x3 x4 x5 x6 x7 x8 x9 x10 x11 x12 x13 x14 x15 x16 x17 x18 x19)
    )
  )
)

;; 2. Transition (Closed-Loop Affine Step)
(assert
  (forall ((x0 Real) (x1 Real) (x2 Real) (x3 Real) (x4 Real) (x5 Real) (x6 Real) (x7 Real) (x8 Real) (x9 Real) (x10 Real) (x11 Real) (x12 Real) (x13 Real) (x14 Real) (x15 Real) (x16 Real) (x17 Real) (x18 Real) (x19 Real)
           (x0_next Real) (x1_next Real) (x2_next Real) (x3_next Real) (x4_next Real) (x5_next Real) (x6_next Real) (x7_next Real) (x8_next Real) (x9_next Real) (x10_next Real) (x11_next Real) (x12_next Real) (x13_next Real) (x14_next Real) (x15_next Real) (x16_next Real) (x17_next Real) (x18_next Real) (x19_next Real))
    (=>
      (and
        (Inv x0 x1 x2 x3 x4 x5 x6 x7 x8 x9 x10 x11 x12 x13 x14 x15 x16 x17 x18 x19)

        (= x0_next (+ (* 0.960519 x0) (+ (* -0.012583 x1) (+ (* 0.001642 x2) (+ (* -0.006159 x3) (+ (* -0.000857 x4) (+ (* -0.005066 x5) (+ (* -0.001773 x6) (+ (* -0.004534 x7) (+ (* -0.001983 x8) (+ (* -0.004311 x9) (+ (* -0.003850 x10) (+ (* -0.006094 x11) (+ (* -0.008742 x12) (+ (* -0.008902 x13) (+ (* -0.011950 x14) (+ (* -0.010688 x15) (+ (* -0.011316 x16) (+ (* -0.011803 x17) (+ (* -0.007471 x18) (* -0.015811 x19)))))))))))))))))))))
        (= x1_next (+ (* 0.007051 x0) (+ (* 0.963717 x1) (+ (* -0.012358 x2) (+ (* 0.001310 x3) (+ (* -0.006051 x4) (+ (* -0.001119 x5) (+ (* -0.004937 x6) (+ (* -0.001918 x7) (+ (* -0.004192 x8) (+ (* -0.002419 x9) (+ (* -0.005486 x10) (+ (* -0.004672 x11) (+ (* -0.009981 x12) (+ (* -0.007821 x13) (+ (* -0.012889 x14) (+ (* -0.009876 x15) (+ (* -0.012012 x16) (+ (* -0.011215 x17) (+ (* -0.007959 x18) (* -0.015418 x19)))))))))))))))))))))
        (= x2_next (+ (* -0.006950 x0) (+ (* 0.006457 x1) (+ (* 0.968211 x2) (+ (* -0.012691 x3) (+ (* 0.001419 x4) (+ (* -0.006313 x5) (+ (* -0.000991 x6) (+ (* -0.005082 x7) (+ (* -0.001576 x8) (+ (* -0.004629 x9) (+ (* -0.003593 x10) (+ (* -0.006308 x11) (+ (* -0.008559 x12) (+ (* -0.009061 x13) (+ (* -0.011809 x14) (+ (* -0.010815 x15) (+ (* -0.011199 x16) (+ (* -0.011911 x17) (+ (* -0.007370 x18) (* -0.015906 x19)))))))))))))))))))))
        (= x3_next (+ (* 0.000519 x0) (+ (* -0.007543 x1) (+ (* 0.006682 x2) (+ (* 0.972398 x3) (+ (* -0.012582 x4) (+ (* 0.001156 x5) (+ (* -0.006185 x6) (+ (* -0.001136 x7) (+ (* -0.004740 x8) (+ (* -0.002012 x9) (+ (* -0.005803 x10) (+ (* -0.004415 x11) (+ (* -0.010195 x12) (+ (* -0.007639 x13) (+ (* -0.013048 x14) (+ (* -0.009735 x15) (+ (* -0.012139 x16) (+ (* -0.011099 x17) (+ (* -0.008066 x18) (* -0.015317 x19)))))))))))))))))))))
        (= x4_next (+ (* -0.004675 x0) (+ (* -0.000074 x1) (+ (* -0.007318 x2) (+ (* 0.006350 x3) (+ (* 0.976990 x4) (+ (* -0.012845 x5) (+ (* 0.001285 x6) (+ (* -0.006330 x7) (+ (* -0.000794 x8) (+ (* -0.005177 x9) (+ (* -0.003187 x10) (+ (* -0.006625 x11) (+ (* -0.008303 x12) (+ (* -0.009274 x13) (+ (* -0.011627 x14) (+ (* -0.010974 x15) (+ (* -0.011058 x16) (+ (* -0.012038 x17) (+ (* -0.007254 x18) (* -0.016014 x19)))))))))))))))))))))
        (= x5_next (+ (* -0.000728 x0) (+ (* -0.005268 x1) (+ (* 0.000151 x2) (+ (* -0.007651 x3) (+ (* 0.006459 x4) (+ (* 0.980895 x5) (+ (* -0.012716 x6) (+ (* 0.001139 x7) (+ (* -0.005988 x8) (+ (* -0.001230 x9) (+ (* -0.006351 x10) (+ (* -0.004009 x11) (+ (* -0.010513 x12) (+ (* -0.007382 x13) (+ (* -0.013262 x14) (+ (* -0.009553 x15) (+ (* -0.012298 x16) (+ (* -0.010958 x17) (+ (* -0.008193 x18) (* -0.015201 x19)))))))))))))))))))))
        (= x6_next (+ (* -0.003893 x0) (+ (* -0.001322 x1) (+ (* -0.005043 x2) (+ (* -0.000182 x3) (+ (* -0.007542 x4) (+ (* 0.006196 x5) (+ (* 0.984672 x6) (+ (* -0.012862 x7) (+ (* 0.001481 x8) (+ (* -0.006424 x9) (+ (* -0.002405 x10) (+ (* -0.007173 x11) (+ (* -0.007896 x12) (+ (* -0.009592 x13) (+ (* -0.011370 x14) (+ (* -0.011188 x15) (+ (* -0.010876 x16) (+ (* -0.012197 x17) (+ (* -0.007113 x18) (* -0.016141 x19)))))))))))))))))))))
        (= x7_next (+ (* -0.001276 x0) (+ (* -0.004486 x1) (+ (* -0.001097 x2) (+ (* -0.005376 x3) (+ (* -0.000073 x4) (+ (* -0.007805 x5) (+ (* 0.006325 x6) (+ (* 0.987556 x7) (+ (* -0.012519 x8) (+ (* 0.001045 x9) (+ (* -0.007599 x10) (+ (* -0.003227 x11) (+ (* -0.011061 x12) (+ (* -0.006976 x13) (+ (* -0.013580 x14) (+ (* -0.009296 x15) (+ (* -0.012512 x16) (+ (* -0.010775 x17) (+ (* -0.008352 x18) (* -0.015060 x19)))))))))))))))))))))
        (= x8_next (+ (* -0.003486 x0) (+ (* -0.001870 x1) (+ (* -0.004261 x2) (+ (* -0.001429 x3) (+ (* -0.005267 x4) (+ (* -0.000336 x5) (+ (* -0.007676 x6) (+ (* 0.006179 x7) (+ (* 0.990305 x8) (+ (* -0.012956 x9) (+ (* -0.000129 x10) (+ (* -0.008421 x11) (+ (* -0.007114 x12) (+ (* -0.010140 x13) (+ (* -0.010963 x14) (+ (* -0.011506 x15) (+ (* -0.010619 x16) (+ (* -0.012411 x17) (+ (* -0.006931 x18) (* -0.016300 x19)))))))))))))))))))))
        (= x9_next (+ (* -0.001594 x0) (+ (* -0.004080 x1) (+ (* -0.001645 x2) (+ (* -0.004594 x3) (+ (* -0.001320 x4) (+ (* -0.005530 x5) (+ (* -0.000207 x6) (+ (* -0.007821 x7) (+ (* 0.006521 x8) (+ (* 0.991714 x9) (+ (* -0.014130 x10) (+ (* -0.000952 x11) (+ (* -0.012308 x12) (+ (* -0.006193 x13) (+ (* -0.014128 x14) (+ (* -0.008889 x15) (+ (* -0.012829 x16) (+ (* -0.010518 x17) (+ (* -0.008566 x18) (* -0.014878 x19)))))))))))))))))))))
        (= x10_next (+ (* -0.003229 x0) (+ (* -0.002187 x1) (+ (* -0.003855 x2) (+ (* -0.001977 x3) (+ (* -0.004485 x4) (+ (* -0.001583 x5) (+ (* -0.005401 x6) (+ (* -0.000352 x7) (+ (* -0.007479 x8) (+ (* 0.006085 x9) (+ (* 0.991917 x10) (+ (* -0.014952 x11) (+ (* -0.004839 x12) (+ (* -0.011387 x13) (+ (* -0.010181 x14) (+ (* -0.012054 x15) (+ (* -0.010213 x16) (+ (* -0.012728 x17) (+ (* -0.006674 x18) (* -0.016514 x19)))))))))))))))))))))
        (= x11_next (+ (* -0.001808 x0) (+ (* -0.003823 x1) (+ (* -0.001962 x2) (+ (* -0.004187 x3) (+ (* -0.001868 x4) (+ (* -0.004748 x5) (+ (* -0.001454 x6) (+ (* -0.005546 x7) (+ (* -0.000010 x8) (+ (* -0.007916 x9) (+ (* 0.004911 x10) (+ (* 0.992102 x11) (+ (* -0.018840 x12) (+ (* -0.003918 x13) (+ (* -0.015375 x14) (+ (* -0.008107 x15) (+ (* -0.013377 x16) (+ (* -0.010112 x17) (+ (* -0.008884 x18) (* -0.014621 x19)))))))))))))))))))))
        (= x12_next (+ (* -0.003047 x0) (+ (* -0.002401 x1) (+ (* -0.003598 x2) (+ (* -0.002295 x3) (+ (* -0.004078 x4) (+ (* -0.002131 x5) (+ (* -0.004619 x6) (+ (* -0.001600 x7) (+ (* -0.005204 x8) (+ (* -0.000446 x9) (+ (* -0.009090 x10) (+ (* 0.004089 x11) (+ (* 0.988941 x12) (+ (* -0.017919 x13) (+ (* -0.007906 x14) (+ (* -0.013301 x15) (+ (* -0.009431 x16) (+ (* -0.013276 x17) (+ (* -0.006267 x18) (* -0.016831 x19)))))))))))))))))))))
        (= x13_next (+ (* -0.001967 x0) (+ (* -0.003640 x1) (+ (* -0.002176 x2) (+ (* -0.003930 x3) (+ (* -0.002186 x4) (+ (* -0.004341 x5) (+ (* -0.002002 x6) (+ (* -0.004764 x7) (+ (* -0.001258 x8) (+ (* -0.005640 x9) (+ (* -0.001621 x10) (+ (* -0.009912 x11) (+ (* 0.000201 x12) (+ (* 0.990378 x13) (+ (* -0.021907 x14) (+ (* -0.005832 x15) (+ (* -0.014625 x16) (+ (* -0.009330 x17) (+ (* -0.009432 x18) (* -0.014215 x19)))))))))))))))))))))
        (= x14_next (+ (* -0.002906 x0) (+ (* -0.002560 x1) (+ (* -0.003415 x2) (+ (* -0.002509 x3) (+ (* -0.003822 x4) (+ (* -0.002449 x5) (+ (* -0.004212 x6) (+ (* -0.002148 x7) (+ (* -0.004422 x8) (+ (* -0.001694 x9) (+ (* -0.006815 x10) (+ (* -0.002443 x11) (+ (* -0.013800 x12) (+ (* 0.001122 x13) (+ (* 0.986756 x14) (+ (* -0.019833 x15) (+ (* -0.007155 x16) (+ (* -0.014524 x17) (+ (* -0.005485 x18) (* -0.017379 x19)))))))))))))))))))))
        (= x15_next (+ (* -0.002094 x0) (+ (* -0.003499 x1) (+ (* -0.002335 x2) (+ (* -0.003748 x3) (+ (* -0.002400 x4) (+ (* -0.004084 x5) (+ (* -0.002320 x6) (+ (* -0.004358 x7) (+ (* -0.001806 x8) (+ (* -0.004858 x9) (+ (* -0.002868 x10) (+ (* -0.007637 x11) (+ (* -0.006330 x12) (+ (* -0.012879 x13) (+ (* -0.002866 x14) (+ (* 0.989086 x15) (+ (* -0.021156 x16) (+ (* -0.007055 x17) (+ (* -0.010679 x18) (* -0.013433 x19)))))))))))))))))))))
        (= x16_next (+ (* -0.002790 x0) (+ (* -0.002687 x1) (+ (* -0.003274 x2) (+ (* -0.002668 x3) (+ (* -0.003639 x4) (+ (* -0.002663 x5) (+ (* -0.003956 x6) (+ (* -0.002465 x7) (+ (* -0.004016 x8) (+ (* -0.002242 x9) (+ (* -0.006033 x10) (+ (* -0.003691 x11) (+ (* -0.011524 x12) (+ (* -0.005410 x13) (+ (* -0.016867 x14) (+ (* -0.000792 x15) (+ (* 0.987941 x16) (+ (* -0.021055 x17) (+ (* -0.003210 x18) (* -0.018627 x19)))))))))))))))))))))
        (= x17_next (+ (* -0.002201 x0) (+ (* -0.003383 x1) (+ (* -0.002462 x2) (+ (* -0.003607 x3) (+ (* -0.002559 x4) (+ (* -0.003902 x5) (+ (* -0.002534 x6) (+ (* -0.004101 x7) (+ (* -0.002123 x8) (+ (* -0.004452 x9) (+ (* -0.003416 x10) (+ (* -0.006855 x11) (+ (* -0.007578 x12) (+ (* -0.010604 x13) (+ (* -0.009398 x14) (+ (* -0.014793 x15) (+ (* -0.002115 x16) (+ (* 0.988165 x17) (+ (* -0.017211 x18) (* -0.011157 x19)))))))))))))))))))))
        (= x18_next (+ (* -0.002689 x0) (+ (* -0.002795 x1) (+ (* -0.003158 x2) (+ (* -0.002795 x3) (+ (* -0.003498 x4) (+ (* -0.002822 x5) (+ (* -0.003773 x6) (+ (* -0.002679 x7) (+ (* -0.003759 x8) (+ (* -0.002559 x9) (+ (* -0.005626 x10) (+ (* -0.004238 x11) (+ (* -0.010742 x12) (+ (* -0.006657 x13) (+ (* -0.014592 x14) (+ (* -0.007324 x15) (+ (* -0.016116 x16) (+ (* -0.002014 x17) (+ (* 0.992093 x18) (* -0.025158 x19)))))))))))))))))))))
        (= x19_next (+ (* -0.002296 x0) (+ (* -0.003283 x1) (+ (* -0.002570 x2) (+ (* -0.003491 x3) (+ (* -0.002686 x4) (+ (* -0.003761 x5) (+ (* -0.002693 x6) (+ (* -0.003918 x7) (+ (* -0.002337 x8) (+ (* -0.004195 x9) (+ (* -0.003734 x10) (+ (* -0.006448 x11) (+ (* -0.008126 x12) (+ (* -0.009822 x13) (+ (* -0.010645 x14) (+ (* -0.012518 x15) (+ (* -0.008647 x16) (+ (* -0.016015 x17) (+ (* 0.001830 x18) (* 0.984200 x19)))))))))))))))))))))
      )
      (Inv x0_next x1_next x2_next x3_next x4_next x5_next x6_next x7_next x8_next x9_next x10_next x11_next x12_next x13_next x14_next x15_next x16_next x17_next x18_next x19_next)
    )
  )
)

;; 3. Safety Query (Actuator Saturation > 12.0V or < -12.0V)
(assert
  (forall ((x0 Real) (x1 Real) (x2 Real) (x3 Real) (x4 Real) (x5 Real) (x6 Real) (x7 Real) (x8 Real) (x9 Real) (x10 Real) (x11 Real) (x12 Real) (x13 Real) (x14 Real) (x15 Real) (x16 Real) (x17 Real) (x18 Real) (x19 Real))
    (=>
      (and
        (Inv x0 x1 x2 x3 x4 x5 x6 x7 x8 x9 x10 x11 x12 x13 x14 x15 x16 x17 x18 x19)
        (or
          (> (+ (* -0.246944 x0) (+ (* -0.306299 x1) (+ (* -0.283802 x2) (+ (* -0.317052 x3) (+ (* -0.306178 x4) (+ (* -0.332448 x5) (+ (* -0.319575 x6) (+ (* -0.334111 x7) (+ (* -0.299910 x8) (+ (* -0.343522 x9) (+ (* -0.460978 x10) (+ (* -0.543185 x11) (+ (* -0.931922 x12) (+ (* -0.839866 x13) (+ (* -1.238632 x14) (+ (* -1.031255 x15) (+ (* -1.163577 x16) (+ (* -1.153484 x17) (+ (* -0.769060 x18) (* -1.563775 x19)))))))))))))))))))) 12.0)
          (< (+ (* -0.246944 x0) (+ (* -0.306299 x1) (+ (* -0.283802 x2) (+ (* -0.317052 x3) (+ (* -0.306178 x4) (+ (* -0.332448 x5) (+ (* -0.319575 x6) (+ (* -0.334111 x7) (+ (* -0.299910 x8) (+ (* -0.343522 x9) (+ (* -0.460978 x10) (+ (* -0.543185 x11) (+ (* -0.931922 x12) (+ (* -0.839866 x13) (+ (* -1.238632 x14) (+ (* -1.031255 x15) (+ (* -1.163577 x16) (+ (* -1.153484 x17) (+ (* -0.769060 x18) (* -1.563775 x19)))))))))))))))))))) -12.0)
        )
      )
      false
    )
  )
)

(check-sat)
(get-model)
